RT is False
Default write of storage_offers_DA.csv just to have a file (but constraint should be inactive)
Reading model...
...model read.
creating competitive generators file...
...competitive generators recorded.
Loading data...
.. day-ahead data with real-time VRE data read.
Compiling instance...
...instance created.
Creating Offer Mitigation (model will solve as dispatch if TRUE)...
Solving...

Welcome to IBM(R) ILOG(R) CPLEX(R) Interactive Optimizer 12.9.0.0
  with Simplex, Mixed Integer & Barrier Optimizers
5725-A06 5725-A29 5724-Y48 5724-Y49 5724-Y54 5724-Y55 5655-Y21
Copyright IBM Corp. 1988, 2019.  All Rights Reserved.

Type 'help' for a list of available commands.
Type 'help' followed by a command name for more
information on commands.

CPLEX> Logfile 'cplex.log' closed.
Logfile 'C:\Users\llavin\Desktop\test919\logs\tmplrih1bdt.cplex.log' open.
CPLEX> New value for parallel optimization mode: -1
CPLEX> New value for mixed integer optimality gap tolerance: 0.01
CPLEX> New value for integrality tolerance: 1e-09
CPLEX> New value for feasibility tolerance: 0.01
CPLEX> New value for deterministic time limit in ticks: 75000
CPLEX> Problem 'C:\Users\llavin\Desktop\test919\logs\tmpj6k62iud.pyomo.lp' read.
Read time = 0.06 sec. (3.04 ticks)
CPLEX> Problem name         : C:\Users\llavin\Desktop\test919\logs\tmpj6k62iud.pyomo.lp
Objective sense      : Minimize
Variables            :   26081  [Nneg: 1,  Box: 21616,  Free: 4464]
Objective nonzeros   :    2496
Linear constraints   :   27515  [Less: 14006,  Greater: 4416,  Equal: 9093]
  Nonzeros           :   89267
  RHS nonzeros       :   12271

Variables            : Min LB: -5000.000        Max UB: 1000000.       
Objective nonzeros   : Min   : 15.73158         Max   : 124.0997       
Linear constraints   :
  Nonzeros           : Min   : 0.8500000        Max   : 3000.000       
  RHS nonzeros       : Min   : 0.4000000        Max   : 5000.000       
CPLEX> CPXPARAM_Parallel                                -1
CPXPARAM_Simplex_Tolerances_Feasibility          0.01
CPXPARAM_DetTimeLimit                            75000
CPXPARAM_MIP_Tolerances_MIPGap                   0.01
CPXPARAM_MIP_Tolerances_Integrality              1.0000000000000001e-09
Parallel mode: opportunistic, using up to 32 threads for concurrent optimization.
Tried aggregator 1 time.
LP Presolve eliminated 21353 rows and 15463 columns.
Aggregator did 770 substitutions.
Reduced LP has 5392 rows, 9848 columns, and 31812 nonzeros.
Presolve time = 0.05 sec. (30.46 ticks)
Symmetry aggregator did 5563 additional substitutions.

Iteration log . . .
Iteration:     1   Dual objective     =             0.000000
Perturbation started.
Iteration:   101   Dual objective     =             0.000000
Iteration:   331   Dual objective     =             1.128310
Iteration:   582   Dual objective     =             1.659323
Iteration:   841   Dual objective     =             1.800196
Iteration:  1043   Dual objective     =             1.912226
Iteration:  1315   Dual objective     =             1.958609
Iteration:  1563   Dual objective     =             1.990620
Iteration:  1786   Dual objective     =         50739.041328
Iteration:  1999   Dual objective     =        177980.713208
Iteration:  2198   Dual objective     =        273178.790258
Iteration:  2404   Dual objective     =        302545.640848
Iteration:  2674   Dual objective     =        304908.757598
Iteration:  3017   Dual objective     =        306112.786934
Removing perturbation.
Dual superbasis not built.
Using devex.

Primal simplex solved model.


Primal simplex - Optimal:  Objective =  3.0625052999e+05
Solution time =    0.17 sec.  Iterations = 1880 (1085)
Deterministic time = 83.40 ticks  (484.89 ticks/sec)

CPLEX> Solution written to file 'C:\Users\llavin\Desktop\test919\logs\tmp4d2whv11.cplex.sol'.
CPLEX> Exporting results... 
...storage offer mitigation file created
Converting model to MPEC...
...converted
NOTE: initial MIP solve with only storage competitive to get feasible solution
Solving...

Welcome to IBM(R) ILOG(R) CPLEX(R) Interactive Optimizer 12.9.0.0
  with Simplex, Mixed Integer & Barrier Optimizers
5725-A06 5725-A29 5724-Y48 5724-Y49 5724-Y54 5724-Y55 5655-Y21
Copyright IBM Corp. 1988, 2019.  All Rights Reserved.

Type 'help' for a list of available commands.
Type 'help' followed by a command name for more
information on commands.

CPLEX> Logfile 'cplex.log' closed.
Logfile 'C:\Users\llavin\Desktop\test919\logs\tmp4nrj6o13.cplex.log' open.
CPLEX> New value for parallel optimization mode: -1
CPLEX> New value for mixed integer optimality gap tolerance: 0.01
CPLEX> New value for integrality tolerance: 1e-09
CPLEX> New value for feasibility tolerance: 0.01
CPLEX> New value for deterministic time limit in ticks: 75000
CPLEX> Problem 'C:\Users\llavin\Desktop\test919\logs\tmpbyoqvaw_.pyomo.lp' read.
Read time = 0.23 sec. (14.78 ticks)
CPLEX> Problem name         : C:\Users\llavin\Desktop\test919\logs\tmpbyoqvaw_.pyomo.lp
Objective sense      : Maximize
Variables            :   53805  [Nneg: 1,  Box: 22000,  Free: 4464,
                                 Binary: 27340]
Objective nonzeros   :    8980
Linear constraints   :  123205  [Less: 41346,  Greater: 59096,  Equal: 22763]
  Nonzeros           :  291801
  RHS nonzeros       :   67485

Variables            : Min LB: -5000.000        Max UB: 1000000.       
Objective nonzeros   : Min   : 0.4000000        Max   : 760.4917       
Linear constraints   :
  Nonzeros           : Min   : 0.4000000        Max   : 1000000.       
  RHS nonzeros       : Min   : 0.4000000        Max   : 1000000.       
CPLEX> CPXPARAM_Parallel                                -1
CPXPARAM_Simplex_Tolerances_Feasibility          0.01
CPXPARAM_DetTimeLimit                            75000
CPXPARAM_MIP_Tolerances_MIPGap                   0.01
CPXPARAM_MIP_Tolerances_Integrality              1.0000000000000001e-09
Tried aggregator 3 times.
MIP Presolve eliminated 88718 rows and 19018 columns.
MIP Presolve added 3350 rows and 0 columns.
MIP Presolve modified 24846 coefficients.
Aggregator did 12934 substitutions.
Reduced MIP has 24903 rows, 21297 columns, and 71065 nonzeros.
Reduced MIP has 8386 binaries, 0 generals, 0 SOSs, and 0 indicators.
Presolve time = 0.28 sec. (173.48 ticks)
Probing fixed 382 vars, tightened 2812 bounds.
Probing time = 1.22 sec. (889.11 ticks)
Tried aggregator 2 times.
MIP Presolve eliminated 857 rows and 764 columns.
MIP Presolve modified 2192 coefficients.
Aggregator did 42 substitutions.
Reduced MIP has 24004 rows, 20491 columns, and 68461 nonzeros.
Reduced MIP has 8004 binaries, 0 generals, 0 SOSs, and 0 indicators.
Presolve time = 0.11 sec. (67.82 ticks)
Probing time = 0.05 sec. (15.74 ticks)
Clique table members: 6388.
MIP emphasis: balance optimality and feasibility.
MIP search method: dynamic search.
Parallel mode: opportunistic, using up to 32 threads.
Root relaxation solution time = 0.38 sec. (284.89 ticks)

        Nodes                                         Cuts/
   Node  Left     Objective  IInf  Best Integer    Best Bound    ItCnt     Gap

      0     0     4847.4305  2094                   4847.4305     6692         
      0     0     4847.4305   773                   Cuts: 517     6962         
      0     0     4847.2892   684                   Cuts: 377     7122         
      0     0     4847.1477   607                   Cuts: 192     7203         
      0     0     4847.1477   596                    Cuts: 40     7216         
      0     0     4847.1477   588                    Cuts: 43     7230         
      0     0     4847.1477   588                    Cuts: 31     7236         
      0    17    infeasible                           Cuts: 3     7355         
Elapsed time = 10.88 sec. (6686.28 ticks, tree = 0.02 MB, solutions = 0)
    438   198     4724.4335    46                   4840.8204    10356         
   1100   264     4720.7164    31                   4840.8204    11351         
   1827  1248     4769.9764    31                   4840.8204    19106         
*  2138  1436      integral     0     4482.8282     4840.8204    19896    7.99%
*  2372  1382      integral     0     4835.3152     4840.8204    19801    0.11%
   2384  1526    infeasible           4835.3152     4840.8204    20028    0.11%

Clique cuts applied:  23
Cover cuts applied:  2
Implied bound cuts applied:  38
Flow cuts applied:  135
Mixed integer rounding cuts applied:  32
Gomory fractional cuts applied:  45

Root node processing (before b&c):
  Real time             =    9.50 sec. (6668.17 ticks)
Parallel b&c, 32 threads:
  Real time             =    5.94 sec. (1210.72 ticks)
  Sync time (average)   =    0.48 sec.
  Wait time (average)   =    0.00 sec.
                          ------------
Total (root+branch&cut) =   15.44 sec. (7878.89 ticks)

Solution pool: 2 solutions saved.

MIP - Integer optimal, tolerance (0.01/1e-06):  Objective =  4.8353151926e+03
Current MIP best bound =  4.8408203863e+03 (gap = 5.50519, 0.11%)
Solution time =   15.47 sec.  Iterations = 21297  Nodes = 2495 (162)
Deterministic time = 7879.04 ticks  (509.38 ticks/sec)

CPLEX> Incumbent solution written to file 'C:\Users\llavin\Desktop\test919\logs\tmpfp04v09j.cplex.sol'.
CPLEX> NOTE: no warmstart specified for MIP iteration, default behavior is true
NOTE: resolving with all competitive generators using storage-only solution to warmstart
Solving...

Welcome to IBM(R) ILOG(R) CPLEX(R) Interactive Optimizer 12.9.0.0
  with Simplex, Mixed Integer & Barrier Optimizers
5725-A06 5725-A29 5724-Y48 5724-Y49 5724-Y54 5724-Y55 5655-Y21
Copyright IBM Corp. 1988, 2019.  All Rights Reserved.

Type 'help' for a list of available commands.
Type 'help' followed by a command name for more
information on commands.

CPLEX> Logfile 'cplex.log' closed.
Logfile 'C:\Users\llavin\Desktop\test919\logs\tmptmisgiq4.cplex.log' open.
CPLEX> New value for parallel optimization mode: -1
CPLEX> New value for mixed integer optimality gap tolerance: 0.01
CPLEX> New value for integrality tolerance: 1e-09
CPLEX> New value for feasibility tolerance: 0.01
CPLEX> New value for deterministic time limit in ticks: 75000
CPLEX> Problem 'C:\Users\llavin\Desktop\test919\logs\tmp6sepcfrq.pyomo.lp' read.
Read time = 0.25 sec. (14.81 ticks)
CPLEX> MIP start file 'C:\Users\llavin\Desktop\test919\logs\tmp3tig8j1j.cplex.mst' read.
CPLEX> Problem name         : C:\Users\llavin\Desktop\test919\logs\tmp6sepcfrq.pyomo.lp
Objective sense      : Maximize
Variables            :   54525  [Nneg: 1,  Box: 22720,  Free: 4464,
                                 Binary: 27340]
Objective nonzeros   :    9676
Linear constraints   :  123205  [Less: 41346,  Greater: 59096,  Equal: 22763]
  Nonzeros           :  291801
  RHS nonzeros       :   67485

Variables            : Min LB: -5000.000        Max UB: 1000000.       
Objective nonzeros   : Min   : 0.4000000        Max   : 760.4917       
Linear constraints   :
  Nonzeros           : Min   : 0.4000000        Max   : 1000000.       
  RHS nonzeros       : Min   : 0.4000000        Max   : 1000000.       
CPLEX> CPXPARAM_Parallel                                -1
CPXPARAM_Simplex_Tolerances_Feasibility          0.01
CPXPARAM_DetTimeLimit                            75000
CPXPARAM_MIP_Tolerances_MIPGap                   0.01
CPXPARAM_MIP_Tolerances_Integrality              1.0000000000000001e-09
Warning:  No solution found from 1 MIP starts.
Retaining values of one MIP start for possible repair.
Tried aggregator 3 times.
MIP Presolve eliminated 88718 rows and 19738 columns.
MIP Presolve added 3350 rows and 0 columns.
MIP Presolve modified 24846 coefficients.
Aggregator did 12934 substitutions.
Reduced MIP has 24903 rows, 21297 columns, and 71065 nonzeros.
Reduced MIP has 8386 binaries, 0 generals, 0 SOSs, and 0 indicators.
Presolve time = 0.28 sec. (173.84 ticks)
Probing fixed 382 vars, tightened 2812 bounds.
Probing time = 1.22 sec. (889.11 ticks)
Tried aggregator 2 times.
MIP Presolve eliminated 857 rows and 764 columns.
MIP Presolve modified 2192 coefficients.
Aggregator did 42 substitutions.
Reduced MIP has 24004 rows, 20491 columns, and 68461 nonzeros.
Reduced MIP has 8004 binaries, 0 generals, 0 SOSs, and 0 indicators.
Presolve time = 0.09 sec. (67.84 ticks)
Probing time = 0.03 sec. (15.74 ticks)
Clique table members: 6388.
MIP emphasis: balance optimality and feasibility.
MIP search method: dynamic search.
Parallel mode: opportunistic, using up to 32 threads.
Root relaxation solution time = 0.41 sec. (312.74 ticks)

        Nodes                                         Cuts/
   Node  Left     Objective  IInf  Best Integer    Best Bound    ItCnt     Gap

      0     0    35400.5294  2109                  35400.5294     6586         
      0     0    34420.0709   757                   Cuts: 568     6877         
      0     0    34341.2867   636                   Cuts: 408     7045         
      0     0    34341.1454   585                   Cuts: 188     7109         
      0     0    34339.4376   574                    Cuts: 62     7142         
      0     0    34339.4376   572                    Cuts: 46     7151         
      0     0    34339.4376   571                    Cuts: 24     7157         
Repair heuristic found nothing.
      0    10    25803.3190   550                    Cuts: 17     7200         
Elapsed time = 10.50 sec. (6298.27 ticks, tree = 0.02 MB, solutions = 0)
    354    80    29852.0263   500                  33597.0249     9138         
    810   597    31093.1298   507                  33597.0249    27829         
   1487   632    24786.7426   486                  33597.0249    28313         
   2256  1348    17747.9059   451                  33597.0249    34989         
   3086  2983    26866.4847   451                  33597.0249    40959         
   4131  1998    25992.4473   432                  33597.0249    38071         
   5141  2917     8323.4836   470                  33597.0249    40735         
   6172  3571    17747.9059   417                  33597.0249    41758         
   7204  5299    15890.6023   416                  33597.0249    42230         
  11516  8577    16768.6034   365                  33597.0249    44731         
Elapsed time = 29.27 sec. (9401.26 ticks, tree = 72.42 MB, solutions = 2)
* 14496 11523      integral     0    16768.6034    33597.0249    45759  100.36%
  14726  8565        cutoff          16768.6034    31699.8379    57436   89.04%
  16109   402    26903.9233     9    16768.6034    27918.7814    61193   66.49%
  18105   932    26998.2736     6    26907.1754    27918.3207    71399    3.76%
* 18398   962      integral     0    27716.3818    27918.3207    73122    0.73%
  19684  1366    27685.4893     8    27716.3818    27918.3207    75383    0.73%

Clique cuts applied:  2
Implied bound cuts applied:  4
Flow cuts applied:  15
Mixed integer rounding cuts applied:  3
Zero-half cuts applied:  1
Gomory fractional cuts applied:  9

Root node processing (before b&c):
  Real time             =    8.86 sec. (6272.28 ticks)
Parallel b&c, 32 threads:
  Real time             =   42.08 sec. (12647.91 ticks)
  Sync time (average)   =    1.39 sec.
  Wait time (average)   =    0.24 sec.
                          ------------
Total (root+branch&cut) =   50.94 sec. (18920.19 ticks)

Solution pool: 11 solutions saved.

MIP - Integer optimal, tolerance (0.01/1e-06):  Objective =  2.7716381811e+04
Current MIP best bound =  2.7918320661e+04 (gap = 201.939, 0.73%)
Solution time =   50.98 sec.  Iterations = 81056  Nodes = 19748 (929)
Deterministic time = 18920.34 ticks  (371.10 ticks/sec)

CPLEX> Incumbent solution written to file 'C:\Users\llavin\Desktop\test919\logs\tmp2080hhvj.cplex.sol'.
CPLEX> Exporting results... 
